10J3M/DAT/10J3MUTA-10.dat
10 3
19.5861 383.6153
43.9107 1928.1496
12.0434 145.0435
16.2909 265.3934
4.9826 24.8263
6.1075 37.3016
15.0239 225.7176
29.0792 845.5999
29.8226 889.3875
10.144 102.9007
2704.4131