10J3M/SOL/10J3MUTA-10.sol
solution status: optimal solution found
objective value:                     76.3792743995803
x#1#1                                               1 	(obj:0)
x#2#1                                               1 	(obj:0)
x#4#1                               0.296278815584354 	(obj:0)
x#4#3                               0.703721184415646 	(obj:0)
x#5#1                               0.823108078151947 	(obj:0)
x#5#2                               0.123286779566167 	(obj:0)
x#6#3                                               1 	(obj:0)
x#7#2                               0.468744348697927 	(obj:0)
x#7#3                               0.531255651302073 	(obj:0)
x#8#2                                               1 	(obj:0)
x#9#1                               0.838851359202423 	(obj:0)
x#9#3                               0.161148640797577 	(obj:0)
x#10#2                                              1 	(obj:0)
z                                    76.3792743995803 	(obj:1)
